40
1 0 42
2 0 2
2 1 10
3 0 94
3 1 23
3 2 68
4 0 97
4 1 103
4 2 29
4 3 112
5 0 87
5 1 33
5 2 119
5 3 24
5 4 24
6 0 58
6 1 10
6 2 25
6 3 70
6 4 102
6 5 42
7 0 9
7 1 97
7 2 31
7 3 13
7 4 104
7 5 83
7 6 60
8 0 77
8 1 119
8 2 120
8 3 74
8 4 74
8 5 120
8 6 2
8 7 51
9 0 84
9 1 102
9 2 38
9 3 118
9 4 90
9 5 90
9 6 102
9 7 95
9 8 41
10 0 24
10 1 68
10 2 98
10 3 55
10 4 107
10 5 26
10 6 91
10 7 64
10 8 58
10 9 8
11 0 18
11 1 42
11 2 58
11 3 71
11 4 15
11 5 49
11 6 84
11 7 61
11 8 6
11 9 83
11 10 10
12 0 65
12 1 30
12 2 118
12 3 100
12 4 118
12 5 70
12 6 32
12 7 11
12 8 91
12 9 76
12 10 89
12 11 82
13 0 80
13 1 81
13 2 57
13 3 77
13 4 120
13 5 90
13 6 101
13 7 59
13 8 75
13 9 59
13 10 20
13 11 69
13 12 46
14 0 67
14 1 32
14 2 104
14 3 30
14 4 88
14 5 96
14 6 1
14 7 79
14 8 24
14 9 70
14 10 73
14 11 110
14 12 48
14 13 42
15 0 116
15 1 90
15 2 58
15 3 73
15 4 97
15 5 19
15 6 60
15 7 56
15 8 76
15 9 38
15 10 57
15 11 85
15 12 100
15 13 14
15 14 32
16 0 52
16 1 78
16 2 76
16 3 103
16 4 4
16 5 71
16 6 67
16 7 32
16 8 43
16 9 118
16 10 47
16 11 58
16 12 36
16 13 78
16 14 4
16 15 117
17 0 21
17 1 113
17 2 105
17 3 78
17 4 74
17 5 84
17 6 89
17 7 46
17 8 107
17 9 84
17 10 10
17 11 65
17 12 97
17 13 99
17 14 56
17 15 114
17 16 74
18 0 113
18 1 17
18 2 49
18 3 86
18 4 17
18 5 25
18 6 71
18 7 100
18 8 9
18 9 91
18 10 115
18 11 15
18 12 26
18 13 114
18 14 11
18 15 56
18 16 66
18 17 112
19 0 52
19 1 73
19 2 105
19 3 3
19 4 60
19 5 27
19 6 87
19 7 76
19 8 109
19 9 110
19 10 92
19 11 86
19 12 113
19 13 82
19 14 102
19 15 105
19 16 36
19 17 54
19 18 46
20 0 47
20 1 52
20 2 81
20 3 71
20 4 78
20 5 66
20 6 17
20 7 91
20 8 108
20 9 14
20 10 48
20 11 80
20 12 33
20 13 68
20 14 57
20 15 76
20 16 59
20 17 55
20 18 103
20 19 9
21 0 77
21 1 40
21 2 107
21 3 42
21 4 120
21 5 114
21 6 120
21 7 44
21 8 102
21 9 91
21 10 46
21 11 20
21 12 70
21 13 82
21 14 26
21 15 63
21 16 88
21 17 80
21 18 52
21 19 38
21 20 76
22 0 55
22 1 62
22 2 114
22 3 95
22 4 73
22 5 10
22 6 59
22 7 41
22 8 95
22 9 3
22 10 115
22 11 120
22 12 88
22 13 62
22 14 8
22 15 52
22 16 53
22 17 30
22 18 49
22 19 5
22 20 63
22 21 71
23 0 88
23 1 55
23 2 99
23 3 70
23 4 114
23 5 45
23 6 72
23 7 115
23 8 110
23 9 40
23 10 115
23 11 75
23 12 30
23 13 94
23 14 41
23 15 24
23 16 64
23 17 55
23 18 33
23 19 87
23 20 107
23 21 92
23 22 73
24 0 52
24 1 72
24 2 119
24 3 117
24 4 39
24 5 39
24 6 35
24 7 34
24 8 117
24 9 19
24 10 97
24 11 38
24 12 70
24 13 48
24 14 62
24 15 111
24 16 63
24 17 2
24 18 62
24 19 35
24 20 82
24 21 115
24 22 105
24 23 24
25 0 43
25 1 106
25 2 30
25 3 47
25 4 68
25 5 6
25 6 2
25 7 54
25 8 5
25 9 31
25 10 54
25 11 84
25 12 32
25 13 25
25 14 26
25 15 7
25 16 21
25 17 83
25 18 50
25 19 120
25 20 75
25 21 37
25 22 75
25 23 108
25 24 73
26 0 104
26 1 113
26 2 47
26 3 91
26 4 59
26 5 108
26 6 79
26 7 93
26 8 8
26 9 75
26 10 88
26 11 89
26 12 87
26 13 97
26 14 20
26 15 51
26 16 43
26 17 32
26 18 80
26 19 13
26 20 45
26 21 16
26 22 75
26 23 58
26 24 26
26 25 1
27 0 66
27 1 78
27 2 48
27 3 67
27 4 109
27 5 42
27 6 114
27 7 60
27 8 98
27 9 105
27 10 78
27 11 102
27 12 76
27 13 33
27 14 51
27 15 100
27 16 44
27 17 105
27 18 82
27 19 5
27 20 52
27 21 26
27 22 76
27 23 61
27 24 38
27 25 103
27 26 85
28 0 111
28 1 109
28 2 88
28 3 79
28 4 14
28 5 97
28 6 117
28 7 12
28 8 59
28 9 97
28 10 46
28 11 45
28 12 18
28 13 25
28 14 116
28 15 4
28 16 89
28 17 110
28 18 23
28 19 63
28 20 52
28 21 34
28 22 120
28 23 72
28 24 47
28 25 20
28 26 66
28 27 79
29 0 89
29 1 99
29 2 41
29 3 14
29 4 116
29 5 48
29 6 26
29 7 41
29 8 3
29 9 30
29 10 32
29 11 113
29 12 100
29 13 47
29 14 96
29 15 31
29 16 95
29 17 79
29 18 89
29 19 54
29 20 66
29 21 67
29 22 30
29 23 69
29 24 18
29 25 95
29 26 45
29 27 55
29 28 25
30 0 107
30 1 111
30 2 28
30 3 114
30 4 66
30 5 17
30 6 109
30 7 5
30 8 67
30 9 71
30 10 54
30 11 77
30 12 45
30 13 49
30 14 116
30 15 11
30 16 92
30 17 120
30 18 22
30 19 25
30 20 14
30 21 76
30 22 37
30 23 12
30 24 32
30 25 62
30 26 100
30 27 95
30 28 110
30 29 56
31 0 116
31 1 49
31 2 16
31 3 19
31 4 96
31 5 50
31 6 50
31 7 61
31 8 27
31 9 30
31 10 25
31 11 93
31 12 47
31 13 50
31 14 9
31 15 48
31 16 15
31 17 100
31 18 91
31 19 80
31 20 68
31 21 114
31 22 101
31 23 80
31 24 8
31 25 115
31 26 100
31 27 30
31 28 117
31 29 23
31 30 96
32 0 98
32 1 113
32 2 50
32 3 105
32 4 29
32 5 101
32 6 82
32 7 39
32 8 28
32 9 50
32 10 105
32 11 116
32 12 105
32 13 29
32 14 32
32 15 13
32 16 37
32 17 86
32 18 66
32 19 40
32 20 73
32 21 9
32 22 27
32 23 88
32 24 48
32 25 70
32 26 45
32 27 65
32 28 103
32 29 66
32 30 8
32 31 17
33 0 116
33 1 89
33 2 4
33 3 110
33 4 34
33 5 39
33 6 46
33 7 68
33 8 70
33 9 55
33 10 41
33 11 74
33 12 8
33 13 13
33 14 53
33 15 54
33 16 15
33 17 90
33 18 69
33 19 118
33 20 83
33 21 4
33 22 102
33 23 98
33 24 94
33 25 67
33 26 21
33 27 67
33 28 93
33 29 42
33 30 113
33 31 67
33 32 42
34 0 76
34 1 43
34 2 37
34 3 49
34 4 4
34 5 26
34 6 26
34 7 25
34 8 45
34 9 12
34 10 67
34 11 63
34 12 70
34 13 57
34 14 87
34 15 84
34 16 45
34 17 1
34 18 20
34 19 92
34 20 98
34 21 15
34 22 71
34 23 16
34 24 112
34 25 79
34 26 41
34 27 45
34 28 103
34 29 9
34 30 3
34 31 24
34 32 30
34 33 84
35 0 88
35 1 77
35 2 5
35 3 96
35 4 67
35 5 4
35 6 75
35 7 62
35 8 20
35 9 37
35 10 14
35 11 7
35 12 72
35 13 75
35 14 35
35 15 72
35 16 79
35 17 64
35 18 35
35 19 87
35 20 54
35 21 116
35 22 34
35 23 58
35 24 6
35 25 107
35 26 71
35 27 39
35 28 31
35 29 56
35 30 115
35 31 57
35 32 112
35 33 102
35 34 11
36 0 75
36 1 56
36 2 20
36 3 62
36 4 96
36 5 28
36 6 33
36 7 51
36 8 115
36 9 25
36 10 22
36 11 17
36 12 78
36 13 1
36 14 58
36 15 21
36 16 79
36 17 13
36 18 115
36 19 30
36 20 77
36 21 114
36 22 36
36 23 69
36 24 11
36 25 17
36 26 86
36 27 35
36 28 14
36 29 15
36 30 74
36 31 1
36 32 110
36 33 101
36 34 98
36 35 73
37 0 109
37 1 44
37 2 119
37 3 110
37 4 113
37 5 64
37 6 26
37 7 111
37 8 114
37 9 112
37 10 94
37 11 60
37 12 14
37 13 120
37 14 98
37 15 111
37 16 34
37 17 100
37 18 27
37 19 83
37 20 25
37 21 16
37 22 5
37 23 38
37 24 118
37 25 44
37 26 20
37 27 10
37 28 69
37 29 118
37 30 22
37 31 14
37 32 55
37 33 45
37 34 78
37 35 10
37 36 76
38 0 99
38 1 2
38 2 50
38 3 79
38 4 86
38 5 22
38 6 114
38 7 51
38 8 79
38 9 25
38 10 30
38 11 83
38 12 49
38 13 106
38 14 17
38 15 102
38 16 77
38 17 113
38 18 11
38 19 31
38 20 1
38 21 32
38 22 64
38 23 8
38 24 3
38 25 44
38 26 42
38 27 71
38 28 85
38 29 113
38 30 109
38 31 57
38 32 4
38 33 36
38 34 64
38 35 26
38 36 73
38 37 113
39 0 38
39 1 109
39 2 18
39 3 81
39 4 56
39 5 16
39 6 83
39 7 113
39 8 96
39 9 53
39 10 55
39 11 34
39 12 3
39 13 104
39 14 8
39 15 15
39 16 100
39 17 39
39 18 39
39 19 37
39 20 6
39 21 113
39 22 100
39 23 120
39 24 31
39 25 72
39 26 18
39 27 5
39 28 96
39 29 31
39 30 28
39 31 85
39 32 109
39 33 101
39 34 59
39 35 59
39 36 56
39 37 97
39 38 54
